p edge 140 840
e 1 8
e 1 23
e 1 54
e 1 55
e 1 103
e 1 109
e 2 4
e 2 26
e 2 65
e 2 70
e 2 116
e 2 136
e 3 29
e 3 34
e 3 38
e 3 59
e 3 59
e 3 72
e 4 8
e 4 9
e 4 39
e 4 85
e 4 123
e 4 130
e 5 11
e 5 33
e 5 49
e 5 52
e 5 91
e 5 113
e 6 13
e 6 28
e 6 76
e 6 109
e 6 129
e 6 131
e 7 4
e 7 18
e 7 29
e 7 48
e 7 82
e 7 124
e 8 44
e 8 70
e 8 77
e 8 84
e 8 114
e 8 128
e 9 8
e 9 25
e 9 89
e 9 96
e 9 105
e 9 126
e 10 24
e 10 34
e 10 36
e 10 52
e 10 55
e 10 100
e 11 28
e 11 32
e 11 65
e 11 94
e 11 96
e 11 108
e 12 11
e 12 31
e 12 40
e 12 49
e 12 67
e 12 69
e 13 14
e 13 43
e 13 63
e 13 80
e 13 109
e 13 127
e 14 3
e 14 93
e 14 100
e 14 132
e 14 137
e 14 138
e 15 21
e 15 80
e 15 81
e 15 87
e 15 91
e 15 116
e 16 40
e 16 50
e 16 61
e 16 77
e 16 112
e 16 134
e 17 4
e 17 39
e 17 42
e 17 85
e 17 111
e 17 125
e 18 12
e 18 13
e 18 45
e 18 64
e 18 69
e 18 105
e 19 3
e 19 14
e 19 23
e 19 35
e 19 49
e 19 129
e 20 42
e 20 46
e 20 68
e 20 76
e 20 79
e 20 88
e 21 30
e 21 31
e 21 53
e 21 62
e 21 103
e 21 129
e 22 1
e 22 49
e 22 88
e 22 113
e 22 122
e 22 125
e 23 33
e 23 39
e 23 42
e 23 54
e 23 71
e 23 128
e 24 47
e 24 62
e 24 98
e 24 110
e 24 116
e 24 125
e 25 4
e 25 52
e 25 55
e 25 91
e 25 116
e 25 139
e 26 1
e 26 63
e 26 87
e 26 109
e 26 127
e 26 132
e 27 10
e 27 43
e 27 49
e 27 83
e 27 96
e 27 113
e 28 24
e 28 31
e 28 91
e 28 114
e 28 131
e 28 132
e 29 78
e 29 85
e 29 91
e 29 98
e 29 128
e 29 135
e 30 24
e 30 35
e 30 49
e 30 54
e 30 65
e 30 123
e 31 38
e 31 44
e 31 46
e 31 46
e 31 61
e 31 86
e 32 1
e 32 12
e 32 43
e 32 70
e 32 102
e 32 124
e 33 23
e 33 34
e 33 38
e 33 61
e 33 92
e 33 136
e 34 18
e 34 32
e 34 33
e 34 37
e 34 80
e 34 104
e 35 37
e 35 53
e 35 71
e 35 115
e 35 134
e 35 140
e 36 40
e 36 53
e 36 71
e 36 100
e 36 136
e 36 140
e 37 5
e 37 30
e 37 61
e 37 71
e 37 80
e 37 138
e 38 41
e 38 66
e 38 71
e 38 110
e 38 115
e 38 122
e 39 35
e 39 73
e 39 73
e 39 104
e 39 115
e 39 123
e 40 15
e 40 58
e 40 62
e 40 79
e 40 97
e 40 119
e 41 20
e 41 26
e 41 37
e 41 83
e 41 89
e 41 124
e 42 21
e 42 26
e 42 90
e 42 97
e 42 100
e 42 128
e 43 2
e 43 12
e 43 14
e 43 63
e 43 104
e 43 112
e 44 10
e 44 19
e 44 36
e 44 54
e 44 94
e 44 95
e 45 30
e 45 47
e 45 91
e 45 120
e 45 136
e 45 136
e 46 2
e 46 7
e 46 85
e 46 109
e 46 110
e 46 124
e 47 4
e 47 19
e 47 22
e 47 55
e 47 75
e 47 77
e 48 3
e 48 41
e 48 56
e 48 89
e 48 130
e 48 135
e 49 3
e 49 11
e 49 26
e 49 78
e 49 78
e 49 102
e 50 24
e 50 89
e 50 106
e 50 113
e 50 119
e 50 135
e 51 9
e 51 64
e 51 112
e 51 126
e 51 130
e 51 135
e 52 32
e 52 56
e 52 62
e 52 95
e 52 119
e 52 140
e 53 44
e 53 76
e 53 91
e 53 106
e 53 112
e 53 117
e 54 14
e 54 22
e 54 24
e 54 25
e 54 132
e 54 134
e 55 27
e 55 29
e 55 45
e 55 108
e 55 122
e 55 132
e 56 27
e 56 29
e 56 43
e 56 53
e 56 115
e 56 139
e 57 35
e 57 35
e 57 37
e 57 52
e 57 76
e 57 121
e 58 30
e 58 68
e 58 79
e 58 85
e 58 90
e 58 119
e 59 12
e 59 18
e 59 24
e 59 26
e 59 35
e 59 90
e 60 3
e 60 3
e 60 8
e 60 25
e 60 36
e 60 53
e 61 8
e 61 17
e 61 52
e 61 77
e 61 104
e 61 127
e 62 28
e 62 34
e 62 43
e 62 82
e 62 84
e 62 118
e 63 5
e 63 13
e 63 20
e 63 26
e 63 92
e 63 118
e 64 39
e 64 75
e 64 93
e 64 98
e 64 129
e 64 131
e 65 12
e 65 35
e 65 43
e 65 68
e 65 74
e 65 122
e 66 11
e 66 47
e 66 49
e 66 64
e 66 71
e 66 106
e 67 55
e 67 56
e 67 115
e 67 123
e 67 138
e 67 140
e 68 2
e 68 2
e 68 8
e 68 40
e 68 48
e 68 97
e 69 30
e 69 67
e 69 79
e 69 85
e 69 96
e 69 100
e 70 20
e 70 55
e 70 69
e 70 123
e 70 127
e 70 139
e 71 2
e 71 10
e 71 16
e 71 62
e 71 114
e 71 137
e 72 19
e 72 44
e 72 82
e 72 84
e 72 92
e 72 117
e 73 9
e 73 19
e 73 43
e 73 61
e 73 68
e 73 94
e 74 20
e 74 42
e 74 57
e 74 81
e 74 82
e 74 104
e 75 37
e 75 42
e 75 89
e 75 121
e 75 122
e 75 136
e 76 4
e 76 6
e 76 37
e 76 61
e 76 68
e 76 127
e 77 2
e 77 13
e 77 13
e 77 88
e 77 96
e 77 129
e 78 31
e 78 53
e 78 68
e 78 68
e 78 85
e 78 115
e 79 3
e 79 6
e 79 21
e 79 60
e 79 62
e 79 134
e 80 7
e 80 47
e 80 54
e 80 91
e 80 101
e 80 128
e 81 5
e 81 90
e 81 97
e 81 121
e 81 134
e 81 140
e 82 17
e 82 57
e 82 84
e 82 115
e 82 125
e 82 137
e 83 17
e 83 34
e 83 85
e 83 112
e 83 118
e 83 131
e 84 43
e 84 70
e 84 86
e 84 98
e 84 101
e 84 101
e 85 22
e 85 26
e 85 48
e 85 58
e 85 67
e 85 119
e 86 27
e 86 30
e 86 74
e 86 83
e 86 107
e 86 111
e 87 32
e 87 53
e 87 69
e 87 73
e 87 73
e 87 121
e 88 1
e 88 69
e 88 82
e 88 113
e 88 115
e 88 138
e 89 14
e 89 37
e 89 92
e 89 94
e 89 120
e 89 133
e 90 24
e 90 82
e 90 91
e 90 95
e 90 133
e 90 137
e 91 17
e 91 49
e 91 52
e 91 72
e 91 132
e 91 136
e 92 8
e 92 15
e 92 42
e 92 55
e 92 91
e 92 140
e 93 21
e 93 33
e 93 72
e 93 77
e 93 80
e 93 89
e 94 38
e 94 63
e 94 77
e 94 90
e 94 90
e 94 137
e 95 26
e 95 87
e 95 94
e 95 112
e 95 131
e 95 138
e 96 15
e 96 28
e 96 62
e 96 93
e 96 108
e 96 132
e 97 8
e 97 22
e 97 50
e 97 53
e 97 86
e 97 114
e 98 61
e 98 64
e 98 81
e 98 104
e 98 104
e 98 107
e 99 29
e 99 44
e 99 47
e 99 49
e 99 70
e 99 96
e 100 4
e 100 10
e 100 54
e 100 55
e 100 99
e 100 120
e 101 14
e 101 16
e 101 67
e 101 80
e 101 96
e 101 126
e 102 17
e 102 47
e 102 71
e 102 97
e 102 108
e 102 108
e 103 33
e 103 39
e 103 51
e 103 64
e 103 83
e 103 130
e 104 2
e 104 15
e 104 18
e 104 63
e 104 93
e 104 95
e 105 24
e 105 32
e 105 60
e 105 77
e 105 104
e 105 123
e 106 9
e 106 36
e 106 53
e 106 78
e 106 83
e 106 94
e 107 9
e 107 42
e 107 87
e 107 100
e 107 102
e 107 122
e 108 21
e 108 36
e 108 101
e 108 113
e 108 133
e 108 138
e 109 5
e 109 34
e 109 37
e 109 73
e 109 118
e 109 127
e 110 15
e 110 38
e 110 48
e 110 99
e 110 126
e 110 132
e 111 6
e 111 8
e 111 38
e 111 45
e 111 81
e 111 124
e 112 19
e 112 37
e 112 80
e 112 103
e 112 111
e 112 127
e 113 10
e 113 15
e 113 51
e 113 57
e 113 58
e 113 82
e 114 8
e 114 23
e 114 115
e 114 123
e 114 132
e 114 132
e 115 8
e 115 26
e 115 47
e 115 58
e 115 130
e 115 133
e 116 26
e 116 39
e 116 41
e 116 57
e 116 63
e 116 137
e 117 27
e 117 82
e 117 89
e 117 89
e 117 90
e 117 138
e 118 16
e 118 64
e 118 73
e 118 76
e 118 109
e 118 125
e 119 6
e 119 37
e 119 46
e 119 51
e 119 83
e 119 127
e 120 68
e 120 70
e 120 87
e 120 91
e 120 100
e 120 109
e 121 8
e 121 55
e 121 61
e 121 61
e 121 68
e 121 101
e 122 5
e 122 5
e 122 60
e 122 105
e 122 108
e 122 126
e 123 4
e 123 18
e 123 21
e 123 61
e 123 99
e 123 113
e 124 14
e 124 48
e 124 113
e 124 123
e 124 128
e 124 133
e 125 1
e 125 21
e 125 26
e 125 28
e 125 102
e 125 107
e 126 1
e 126 34
e 126 72
e 126 109
e 126 134
e 126 136
e 127 1
e 127 4
e 127 26
e 127 62
e 127 77
e 127 105
e 128 22
e 128 58
e 128 60
e 128 62
e 128 121
e 128 133
e 129 13
e 129 39
e 129 66
e 129 95
e 129 134
e 129 137
e 130 14
e 130 31
e 130 56
e 130 71
e 130 122
e 130 136
e 131 17
e 131 35
e 131 55
e 131 76
e 131 88
e 131 135
e 132 7
e 132 11
e 132 19
e 132 41
e 132 60
e 132 65
e 133 36
e 133 39
e 133 41
e 133 56
e 133 80
e 133 117
e 134 1
e 134 38
e 134 41
e 134 73
e 134 93
e 134 108
e 135 6
e 135 24
e 135 31
e 135 55
e 135 62
e 135 69
e 136 13
e 136 14
e 136 37
e 136 66
e 136 72
e 136 85
e 137 3
e 137 22
e 137 29
e 137 45
e 137 68
e 137 79
e 138 21
e 138 36
e 138 45
e 138 63
e 138 76
e 138 139
e 139 34
e 139 40
e 139 79
e 139 104
e 139 123
e 139 131
e 140 13
e 140 15
e 140 40
e 140 80
e 140 83
e 140 130
